NAME: random-91-11445
TYPE: TSP
COMMENT: size=91 seed=11445
DIMENSION: 184
EDGE_WEIGHT_TYPE: EUC_2D
NODE_COORD_SECTION
+0 115 70
-0 115 70
+1 91 305
-1 994 167
+2 957 546
-2 117 657
+3 970 125
-3 898 721
+4 908 469
-4 764 385
+5 469 785
-5 725 609
+6 652 775
-6 411 562
+7 753 900
-7 719 789
+8 899 494
-8 122 553
+9 375 226
-9 381 238
+10 246 525
-10 195 86
+11 793 868
-11 297 620
+12 43 747
-12 961 936
+13 573 618
-13 443 515
+14 684 589
-14 815 464
+15 899 592
-15 829 483
+16 521 94
-16 3 974
+17 451 117
-17 300 333
+18 938 459
-18 811 425
+19 492 789
-19 520 47
+20 497 32
-20 798 232
+21 826 140
-21 103 386
+22 309 267
-22 464 0
+23 726 12
-23 685 616
+24 368 708
-24 856 242
+25 542 480
-25 906 580
+26 892 636
-26 364 99
+27 778 145
-27 707 887
+28 16 357
-28 878 471
+29 474 757
-29 947 16
+30 173 991
-30 332 133
+31 146 179
-31 387 835
+32 380 892
-32 493 511
+33 650 834
-33 810 606
+34 82 704
-34 755 926
+35 359 497
-35 255 700
+36 429 884
-36 719 300
+37 480 293
-37 970 257
+38 301 913
-38 539 188
+39 455 109
-39 967 493
+40 843 726
-40 400 728
+41 282 437
-41 893 205
+42 449 318
-42 423 338
+43 597 578
-43 569 443
+44 38 493
-44 174 545
+45 325 693
-45 114 894
+46 589 764
-46 1 731
+47 521 656
-47 809 630
+48 538 843
-48 575 0
+49 154 968
-49 39 254
+50 985 983
-50 851 39
+51 866 458
-51 945 796
+52 304 179
-52 885 711
+53 833 353
-53 234 965
+54 452 123
-54 909 79
+55 495 84
-55 381 658
+56 560 390
-56 203 813
+57 319 915
-57 270 858
+58 255 209
-58 337 124
+59 613 387
-59 274 375
+60 664 771
-60 25 66
+61 722 650
-61 22 634
+62 700 357
-62 698 440
+63 963 37
-63 851 145
+64 618 812
-64 492 146
+65 344 727
-65 951 155
+66 37 600
-66 821 432
+67 196 375
-67 706 557
+68 733 513
-68 93 915
+69 883 43
-69 505 587
+70 627 877
-70 365 974
+71 209 38
-71 893 193
+72 144 527
-72 445 570
+73 103 814
-73 484 654
+74 368 482
-74 370 208
+75 289 481
-75 36 767
+76 685 218
-76 744 569
+77 297 42
-77 606 598
+78 532 657
-78 79 255
+79 726 445
-79 272 515
+80 826 281
-80 506 443
+81 844 387
-81 953 708
+82 732 303
-82 691 146
+83 59 522
-83 748 614
+84 218 135
-84 718 233
+85 464 717
-85 321 284
+86 512 546
-86 16 350
+87 615 322
-87 339 587
+88 979 843
-88 900 523
+89 22 27
-89 652 674
+90 505 753
-90 779 509
+91 705 227
-91 418 711
PRECEDENCE_SECTION
+0 -0
+1 -1
+2 -2
+3 -3
+4 -4
+5 -5
+6 -6
+7 -7
+8 -8
+9 -9
+10 -10
+11 -11
+12 -12
+13 -13
+14 -14
+15 -15
+16 -16
+17 -17
+18 -18
+19 -19
+20 -20
+21 -21
+22 -22
+23 -23
+24 -24
+25 -25
+26 -26
+27 -27
+28 -28
+29 -29
+30 -30
+31 -31
+32 -32
+33 -33
+34 -34
+35 -35
+36 -36
+37 -37
+38 -38
+39 -39
+40 -40
+41 -41
+42 -42
+43 -43
+44 -44
+45 -45
+46 -46
+47 -47
+48 -48
+49 -49
+50 -50
+51 -51
+52 -52
+53 -53
+54 -54
+55 -55
+56 -56
+57 -57
+58 -58
+59 -59
+60 -60
+61 -61
+62 -62
+63 -63
+64 -64
+65 -65
+66 -66
+67 -67
+68 -68
+69 -69
+70 -70
+71 -71
+72 -72
+73 -73
+74 -74
+75 -75
+76 -76
+77 -77
+78 -78
+79 -79
+80 -80
+81 -81
+82 -82
+83 -83
+84 -84
+85 -85
+86 -86
+87 -87
+88 -88
+89 -89
+90 -90
+91 -91
EOF
